NAME          SelectionSort
ROWS
 N  COST
 L  C1
 L  C2
 L  C3
 L  C4
COLUMNS
    X1        COST         1.0   C1           1.0
    X2        COST         1.0   C1          -1.0
    X2        C2           1.0
    X3        COST         1.0   C2          -1.0
    X3        C3           1.0
    X4        COST         1.0   C3          -1.0
    X4        C4           1.0
    X5        COST         1.0   C4          -1.0
RHS
    RHS       C1           0.0
    RHS       C2           0.0
    RHS       C3           0.0
    RHS       C4           0.0
BOUNDS
 UI BND       X1           5
 UI BND       X2           5
 UI BND       X3           5
 UI BND       X4           5
 UI BND       X5           5
ENDATA
